1 1
8 1
2 5
2 7
3 3
2 6
9 7
9 4
3 7
9 9
6 1
4 9
3 1
9 1
6 4
4 4
5 8
8 2
1 3
1 5
4 8
3 2
7 6
3 9
5 7
7 1
2 4
9 3
1 4
7 9
5 5
8 9
4 6
6 9
5 9
6 6
8 5
4 5
8 7
2 3
5 2
8 4
1 7
1 6
2 2
5 6
6 3
3 6
1 8
3 4
7 5
8 3
7 3
6 5
8 8
2 1
4 3
5 4
2 8
1 2
7 4
5 3
3 5
2 9
7 2
6 8
9 8
6 2
4 1
7 8
9 2
9 6
3 8
1 9
5 1
9 5
7 7
6 7
4 2
8 6
4 7
